10J3M/DAT/10J3MNNL-15.dat
10 3
24.8774 24.8774
26.1276 26.1276
28.7415 28.7415
19.1259 19.1259
29.4502 29.4502
25.4096 25.4096
25.9893 25.9893
21.5455 21.5455
24.0463 24.0463
20.6075 20.6075
245.9208