10J3M/SOL/10J3MNNL-15.sol
solution status: optimal solution found
objective value:                     81.8798333333333
x#1#2                                               1 	(obj:0)
x#2#2                                               1 	(obj:0)
x#3#1                                               1 	(obj:0)
x#4#1                                               1 	(obj:0)
x#5#1                               0.661021445645221 	(obj:0)
x#5#2                               0.338978554354779 	(obj:0)
x#6#2                                               1 	(obj:0)
x#7#1                                               1 	(obj:0)
x#8#3                                               1 	(obj:0)
x#9#2                                0.38210262115595 	(obj:0)
x#9#3                                0.61789737884405 	(obj:0)
x#10#3                                              1 	(obj:0)
z                                    81.8798333333333 	(obj:1)
